proyfinal/src/viki/013/experimentInOfficeAgust.take6.output/58e66735-0583-468b-9a27-160a9c9cc541.als.dat
{'cnf.clauses': '118081',
 'cnf.totvars': '69608',
 'conflict literals': '62',
 'conflicts': '30',
 'decisions': '7353',
 'memused.mb': '14.76',
 'outcome': 'UNSAT',
 'propagations': '34469',
 'restarts': '1',
 'solver.msecs': 34,
 'task.msecs': 85}
