proyfinal/src/viki/013/experimentInOfficeAgust.take6.output/58e66735-0583-468b-9a27-160a9c9cc541.als.out
Reading from standard input... Use '--help' for help.
============================[ Problem Statistics ]=============================
|                                                                             |
|  Number of variables:         69608                                         |
|  Number of clauses:          118081                                         |
|  Parse time:                   0.03 s                                       |
|                                                                             |
============================[ Search Statistics ]==============================
| Conflicts |          ORIGINAL         |          LEARNT          | Progress |
|           |    Vars  Clauses Literals |    Limit  Clauses Lit/Cl |          |
===============================================================================
===============================================================================
restarts              : 1
conflicts             : 30             (869 /sec)
decisions             : 7353           (0.00 % random) (213075 /sec)
propagations          : 34469          (998841 /sec)
conflict literals     : 62             (3.12 % deleted)
Memory used           : 14.76 MB
CPU time              : 0.034509 s

UNSATISFIABLE
